NAME: tsp30_10
COMMENT: 30-tsp problem (Padberg/Rinaldi)
TYPE: TSP
DIMENSION: 30
EDGE_WEIGHT_TYPE : EUC_2D
NODE_COORD_SECTION
1 8 15
2 13 35
3 34 3
4 6 29
5 3 16
6 26 9
7 9 33
8 10 25
9 17 12
10 9 31
11 34 18
12 9 16
13 38 27
14 31 11
15 18 34
16 21 14
17 33 28
18 40 22
19 33 37
20 25 16
21 39 36
22 4 24
23 27 28
24 21 30
25 36 8
26 30 6
27 11 24
28 31 31
29 4 24
30 38 38
